4078
4082
4037
4116
4170
4077
4126
4111
4135
4099
4104
4092
4091
4083
4072
4122
4131
4060
4085
4117
4131
4134
4081
4129
4117
4066
4102
4053
4113
4107
4130
4074
4109
4136
4029
4137
4072
4100
4131
4088
4120
4050
4056
4100
4101
4044
4193
4068
4145
4080
4149
4110
4067
4082
4069
4135
4106
4140
4114
4151
4148
4093
4146
4090
4027
4154
4103
4158
4077
4143
4091
4132
4066
4073
4059
4079
4042
4048
4088
4067
4069
4179
4104
4143
4118
4083
4139
4071
4105
4094
4116
4119
4115
4154
4121
4148
4151
4146
4108
4046
